unsat
(:max-memory         18.42
 :memory             18.33
 :nlsat-arith-var    4
 :nlsat-atoms        15
 :nlsat-bool-var     1
 :nlsat-clauses      11
 :nlsat-conflicts    4
 :nlsat-propagations 17
 :nlsat-stages       6
 :num-allocs         50776
 :rlimit-count       1401
 :time               0.00
 :total-time         0.01)
